\ LP format - for model browsing. Use MPS format to capture full model detail.
Maximize
obj:   x[1] + x[10] + x[19] + x[22] + x[25] + x[2] + x[11] + x[28] + x[31]
   + x[34] + x[3] + x[12] + x[37] + x[40] + x[43] + x[4] + x[13] + x[23]
   + x[29] + x[44] + x[5] + x[14] + x[20] + x[32] + x[41] + x[6] + x[15]
   + x[26] + x[35] + x[38] + x[7] + x[16] + x[27] + x[33] + x[45] + x[8]
   + x[17] + x[24] + x[36] + x[42] + x[9] + x[18] + x[21] + x[30] + x[39]
Subject To
 clq1: x[1] + x[25] <= 1
 clq2: x[2] + x[34] <= 1
 clq3: x[3] + x[43] <= 1
 clq4: x[4] + x[44] <= 1
 clq5: x[5] + x[41] <= 1
 clq6: x[6] + x[26] <= 1
 clq7: x[7] + x[33] <= 1
 clq8: x[8] + x[17] <= 1
 clq9: x[9] + x[18] <= 1
 clq10: x[1] + x[10] <= 1
 clq11: x[19] + x[20] + x[21] <= 1
 clq12: x[22] + x[23] + x[24] <= 1
 clq13: x[2] + x[11] <= 1
 clq14: x[28] + x[29] + x[30] <= 1
 clq15: x[31] + x[32] + x[33] <= 1
 clq16: x[3] + x[12] <= 1
 clq17: x[37] + x[38] + x[39] <= 1
 clq18: x[40] + x[41] + x[42] <= 1
 clq19: x[4] + x[13] <= 1
 clq20: x[5] + x[14] <= 1
 clq21: x[6] + x[35] <= 1
 clq22: x[6] + x[15] <= 1
 clq23: x[7] + x[27] <= 1
 clq24: x[16] + x[17] + x[18] <= 1
 clq25: x[43] + x[44] + x[45] <= 1
 clq26: x[8] + x[36] <= 1
 clq27: x[9] + x[21] <= 1
 clq28: x[1] + x[19] <= 1
 clq29: x[10] + x[11] + x[12] <= 1
 clq30: x[25] + x[26] + x[27] <= 1
 clq31: x[2] + x[28] <= 1
 clq32: x[34] + x[35] + x[36] <= 1
 clq33: x[3] + x[37] <= 1
 clq34: x[4] + x[29] <= 1
 clq35: x[13] + x[14] + x[15] <= 1
 clq36: x[5] + x[20] <= 1
 clq37: x[7] + x[45] <= 1
 clq38: x[8] + x[42] <= 1
 clq39: x[9] + x[30] <= 1
 clq40: x[1] + x[22] <= 1
 clq41: x[2] + x[31] <= 1
 clq42: x[3] + x[40] <= 1
 clq43: x[4] + x[23] <= 1
 clq44: x[5] + x[32] <= 1
 clq45: x[6] + x[38] <= 1
 clq46: x[7] + x[16] <= 1
 clq47: x[8] + x[24] <= 1
 clq48: x[9] + x[39] <= 1
Bounds
Binaries
 x[1] x[10] x[19] x[22] x[25] x[2] x[11] x[28] x[31] x[34] x[3] x[12] x[37]
 x[40] x[43] x[4] x[13] x[23] x[29] x[44] x[5] x[14] x[20] x[32] x[41] x[6]
 x[15] x[26] x[35] x[38] x[7] x[16] x[27] x[33] x[45] x[8] x[17] x[24]
 x[36] x[42] x[9] x[18] x[21] x[30] x[39]
End
